p cnf 315 2376
1 2 3 4 5 6 7 0
8 9 10 11 12 13 14 0
15 16 17 18 19 20 21 0
22 23 24 25 26 27 28 0
29 30 31 32 33 34 35 0
36 37 38 39 40 41 42 0
43 44 45 46 47 48 49 0
50 51 52 53 54 55 56 0
57 58 59 60 61 62 63 0
64 65 66 67 68 69 70 0
71 72 73 74 75 76 77 0
78 79 80 81 82 83 84 0
85 86 87 88 89 90 91 0
92 93 94 95 96 97 98 0
99 100 101 102 103 104 105 0
106 107 108 109 110 111 112 0
113 114 115 116 117 118 119 0
120 121 122 123 124 125 126 0
127 128 129 130 131 132 133 0
134 135 136 137 138 139 140 0
141 142 143 144 145 146 147 0
148 149 150 151 152 153 154 0
155 156 157 158 159 160 161 0
162 163 164 165 166 167 168 0
169 170 171 172 173 174 175 0
176 177 178 179 180 181 182 0
183 184 185 186 187 188 189 0
190 191 192 193 194 195 196 0
197 198 199 200 201 202 203 0
204 205 206 207 208 209 210 0
211 212 213 214 215 216 217 0
218 219 220 221 222 223 224 0
225 226 227 228 229 230 231 0
232 233 234 235 236 237 238 0
239 240 241 242 243 244 245 0
246 247 248 249 250 251 252 0
253 254 255 256 257 258 259 0
260 261 262 263 264 265 266 0
267 268 269 270 271 272 273 0
274 275 276 277 278 279 280 0
281 282 283 284 285 286 287 0
288 289 290 291 292 293 294 0
295 296 297 298 299 300 301 0
302 303 304 305 306 307 308 0
309 310 311 312 313 314 315 0
-1 -2 0
-1 -3 0
-1 -4 0
-1 -5 0
-1 -6 0
-1 -7 0
-2 -3 0
-2 -4 0
-2 -5 0
-2 -6 0
-2 -7 0
-3 -4 0
-3 -5 0
-3 -6 0
-3 -7 0
-4 -5 0
-4 -6 0
-4 -7 0
-5 -6 0
-5 -7 0
-6 -7 0
-8 -9 0
-8 -10 0
-8 -11 0
-8 -12 0
-8 -13 0
-8 -14 0
-9 -10 0
-9 -11 0
-9 -12 0
-9 -13 0
-9 -14 0
-10 -11 0
-10 -12 0
-10 -13 0
-10 -14 0
-11 -12 0
-11 -13 0
-11 -14 0
-12 -13 0
-12 -14 0
-13 -14 0
-15 -16 0
-15 -17 0
-15 -18 0
-15 -19 0
-15 -20 0
-15 -21 0
-16 -17 0
-16 -18 0
-16 -19 0
-16 -20 0
-16 -21 0
-17 -18 0
-17 -19 0
-17 -20 0
-17 -21 0
-18 -19 0
-18 -20 0
-18 -21 0
-19 -20 0
-19 -21 0
-20 -21 0
-22 -23 0
-22 -24 0
-22 -25 0
-22 -26 0
-22 -27 0
-22 -28 0
-23 -24 0
-23 -25 0
-23 -26 0
-23 -27 0
-23 -28 0
-24 -25 0
-24 -26 0
-24 -27 0
-24 -28 0
-25 -26 0
-25 -27 0
-25 -28 0
-26 -27 0
-26 -28 0
-27 -28 0
-29 -30 0
-29 -31 0
-29 -32 0
-29 -33 0
-29 -34 0
-29 -35 0
-30 -31 0
-30 -32 0
-30 -33 0
-30 -34 0
-30 -35 0
-31 -32 0
-31 -33 0
-31 -34 0
-31 -35 0
-32 -33 0
-32 -34 0
-32 -35 0
-33 -34 0
-33 -35 0
-34 -35 0
-36 -37 0
-36 -38 0
-36 -39 0
-36 -40 0
-36 -41 0
-36 -42 0
-37 -38 0
-37 -39 0
-37 -40 0
-37 -41 0
-37 -42 0
-38 -39 0
-38 -40 0
-38 -41 0
-38 -42 0
-39 -40 0
-39 -41 0
-39 -42 0
-40 -41 0
-40 -42 0
-41 -42 0
-43 -44 0
-43 -45 0
-43 -46 0
-43 -47 0
-43 -48 0
-43 -49 0
-44 -45 0
-44 -46 0
-44 -47 0
-44 -48 0
-44 -49 0
-45 -46 0
-45 -47 0
-45 -48 0
-45 -49 0
-46 -47 0
-46 -48 0
-46 -49 0
-47 -48 0
-47 -49 0
-48 -49 0
-50 -51 0
-50 -52 0
-50 -53 0
-50 -54 0
-50 -55 0
-50 -56 0
-51 -52 0
-51 -53 0
-51 -54 0
-51 -55 0
-51 -56 0
-52 -53 0
-52 -54 0
-52 -55 0
-52 -56 0
-53 -54 0
-53 -55 0
-53 -56 0
-54 -55 0
-54 -56 0
-55 -56 0
-57 -58 0
-57 -59 0
-57 -60 0
-57 -61 0
-57 -62 0
-57 -63 0
-58 -59 0
-58 -60 0
-58 -61 0
-58 -62 0
-58 -63 0
-59 -60 0
-59 -61 0
-59 -62 0
-59 -63 0
-60 -61 0
-60 -62 0
-60 -63 0
-61 -62 0
-61 -63 0
-62 -63 0
-64 -65 0
-64 -66 0
-64 -67 0
-64 -68 0
-64 -69 0
-64 -70 0
-65 -66 0
-65 -67 0
-65 -68 0
-65 -69 0
-65 -70 0
-66 -67 0
-66 -68 0
-66 -69 0
-66 -70 0
-67 -68 0
-67 -69 0
-67 -70 0
-68 -69 0
-68 -70 0
-69 -70 0
-71 -72 0
-71 -73 0
-71 -74 0
-71 -75 0
-71 -76 0
-71 -77 0
-72 -73 0
-72 -74 0
-72 -75 0
-72 -76 0
-72 -77 0
-73 -74 0
-73 -75 0
-73 -76 0
-73 -77 0
-74 -75 0
-74 -76 0
-74 -77 0
-75 -76 0
-75 -77 0
-76 -77 0
-78 -79 0
-78 -80 0
-78 -81 0
-78 -82 0
-78 -83 0
-78 -84 0
-79 -80 0
-79 -81 0
-79 -82 0
-79 -83 0
-79 -84 0
-80 -81 0
-80 -82 0
-80 -83 0
-80 -84 0
-81 -82 0
-81 -83 0
-81 -84 0
-82 -83 0
-82 -84 0
-83 -84 0
-85 -86 0
-85 -87 0
-85 -88 0
-85 -89 0
-85 -90 0
-85 -91 0
-86 -87 0
-86 -88 0
-86 -89 0
-86 -90 0
-86 -91 0
-87 -88 0
-87 -89 0
-87 -90 0
-87 -91 0
-88 -89 0
-88 -90 0
-88 -91 0
-89 -90 0
-89 -91 0
-90 -91 0
-92 -93 0
-92 -94 0
-92 -95 0
-92 -96 0
-92 -97 0
-92 -98 0
-93 -94 0
-93 -95 0
-93 -96 0
-93 -97 0
-93 -98 0
-94 -95 0
-94 -96 0
-94 -97 0
-94 -98 0
-95 -96 0
-95 -97 0
-95 -98 0
-96 -97 0
-96 -98 0
-97 -98 0
-99 -100 0
-99 -101 0
-99 -102 0
-99 -103 0
-99 -104 0
-99 -105 0
-100 -101 0
-100 -102 0
-100 -103 0
-100 -104 0
-100 -105 0
-101 -102 0
-101 -103 0
-101 -104 0
-101 -105 0
-102 -103 0
-102 -104 0
-102 -105 0
-103 -104 0
-103 -105 0
-104 -105 0
-106 -107 0
-106 -108 0
-106 -109 0
-106 -110 0
-106 -111 0
-106 -112 0
-107 -108 0
-107 -109 0
-107 -110 0
-107 -111 0
-107 -112 0
-108 -109 0
-108 -110 0
-108 -111 0
-108 -112 0
-109 -110 0
-109 -111 0
-109 -112 0
-110 -111 0
-110 -112 0
-111 -112 0
-113 -114 0
-113 -115 0
-113 -116 0
-113 -117 0
-113 -118 0
-113 -119 0
-114 -115 0
-114 -116 0
-114 -117 0
-114 -118 0
-114 -119 0
-115 -116 0
-115 -117 0
-115 -118 0
-115 -119 0
-116 -117 0
-116 -118 0
-116 -119 0
-117 -118 0
-117 -119 0
-118 -119 0
-120 -121 0
-120 -122 0
-120 -123 0
-120 -124 0
-120 -125 0
-120 -126 0
-121 -122 0
-121 -123 0
-121 -124 0
-121 -125 0
-121 -126 0
-122 -123 0
-122 -124 0
-122 -125 0
-122 -126 0
-123 -124 0
-123 -125 0
-123 -126 0
-124 -125 0
-124 -126 0
-125 -126 0
-127 -128 0
-127 -129 0
-127 -130 0
-127 -131 0
-127 -132 0
-127 -133 0
-128 -129 0
-128 -130 0
-128 -131 0
-128 -132 0
-128 -133 0
-129 -130 0
-129 -131 0
-129 -132 0
-129 -133 0
-130 -131 0
-130 -132 0
-130 -133 0
-131 -132 0
-131 -133 0
-132 -133 0
-134 -135 0
-134 -136 0
-134 -137 0
-134 -138 0
-134 -139 0
-134 -140 0
-135 -136 0
-135 -137 0
-135 -138 0
-135 -139 0
-135 -140 0
-136 -137 0
-136 -138 0
-136 -139 0
-136 -140 0
-137 -138 0
-137 -139 0
-137 -140 0
-138 -139 0
-138 -140 0
-139 -140 0
-141 -142 0
-141 -143 0
-141 -144 0
-141 -145 0
-141 -146 0
-141 -147 0
-142 -143 0
-142 -144 0
-142 -145 0
-142 -146 0
-142 -147 0
-143 -144 0
-143 -145 0
-143 -146 0
-143 -147 0
-144 -145 0
-144 -146 0
-144 -147 0
-145 -146 0
-145 -147 0
-146 -147 0
-148 -149 0
-148 -150 0
-148 -151 0
-148 -152 0
-148 -153 0
-148 -154 0
-149 -150 0
-149 -151 0
-149 -152 0
-149 -153 0
-149 -154 0
-150 -151 0
-150 -152 0
-150 -153 0
-150 -154 0
-151 -152 0
-151 -153 0
-151 -154 0
-152 -153 0
-152 -154 0
-153 -154 0
-155 -156 0
-155 -157 0
-155 -158 0
-155 -159 0
-155 -160 0
-155 -161 0
-156 -157 0
-156 -158 0
-156 -159 0
-156 -160 0
-156 -161 0
-157 -158 0
-157 -159 0
-157 -160 0
-157 -161 0
-158 -159 0
-158 -160 0
-158 -161 0
-159 -160 0
-159 -161 0
-160 -161 0
-162 -163 0
-162 -164 0
-162 -165 0
-162 -166 0
-162 -167 0
-162 -168 0
-163 -164 0
-163 -165 0
-163 -166 0
-163 -167 0
-163 -168 0
-164 -165 0
-164 -166 0
-164 -167 0
-164 -168 0
-165 -166 0
-165 -167 0
-165 -168 0
-166 -167 0
-166 -168 0
-167 -168 0
-169 -170 0
-169 -171 0
-169 -172 0
-169 -173 0
-169 -174 0
-169 -175 0
-170 -171 0
-170 -172 0
-170 -173 0
-170 -174 0
-170 -175 0
-171 -172 0
-171 -173 0
-171 -174 0
-171 -175 0
-172 -173 0
-172 -174 0
-172 -175 0
-173 -174 0
-173 -175 0
-174 -175 0
-176 -177 0
-176 -178 0
-176 -179 0
-176 -180 0
-176 -181 0
-176 -182 0
-177 -178 0
-177 -179 0
-177 -180 0
-177 -181 0
-177 -182 0
-178 -179 0
-178 -180 0
-178 -181 0
-178 -182 0
-179 -180 0
-179 -181 0
-179 -182 0
-180 -181 0
-180 -182 0
-181 -182 0
-183 -184 0
-183 -185 0
-183 -186 0
-183 -187 0
-183 -188 0
-183 -189 0
-184 -185 0
-184 -186 0
-184 -187 0
-184 -188 0
-184 -189 0
-185 -186 0
-185 -187 0
-185 -188 0
-185 -189 0
-186 -187 0
-186 -188 0
-186 -189 0
-187 -188 0
-187 -189 0
-188 -189 0
-190 -191 0
-190 -192 0
-190 -193 0
-190 -194 0
-190 -195 0
-190 -196 0
-191 -192 0
-191 -193 0
-191 -194 0
-191 -195 0
-191 -196 0
-192 -193 0
-192 -194 0
-192 -195 0
-192 -196 0
-193 -194 0
-193 -195 0
-193 -196 0
-194 -195 0
-194 -196 0
-195 -196 0
-197 -198 0
-197 -199 0
-197 -200 0
-197 -201 0
-197 -202 0
-197 -203 0
-198 -199 0
-198 -200 0
-198 -201 0
-198 -202 0
-198 -203 0
-199 -200 0
-199 -201 0
-199 -202 0
-199 -203 0
-200 -201 0
-200 -202 0
-200 -203 0
-201 -202 0
-201 -203 0
-202 -203 0
-204 -205 0
-204 -206 0
-204 -207 0
-204 -208 0
-204 -209 0
-204 -210 0
-205 -206 0
-205 -207 0
-205 -208 0
-205 -209 0
-205 -210 0
-206 -207 0
-206 -208 0
-206 -209 0
-206 -210 0
-207 -208 0
-207 -209 0
-207 -210 0
-208 -209 0
-208 -210 0
-209 -210 0
-211 -212 0
-211 -213 0
-211 -214 0
-211 -215 0
-211 -216 0
-211 -217 0
-212 -213 0
-212 -214 0
-212 -215 0
-212 -216 0
-212 -217 0
-213 -214 0
-213 -215 0
-213 -216 0
-213 -217 0
-214 -215 0
-214 -216 0
-214 -217 0
-215 -216 0
-215 -217 0
-216 -217 0
-218 -219 0
-218 -220 0
-218 -221 0
-218 -222 0
-218 -223 0
-218 -224 0
-219 -220 0
-219 -221 0
-219 -222 0
-219 -223 0
-219 -224 0
-220 -221 0
-220 -222 0
-220 -223 0
-220 -224 0
-221 -222 0
-221 -223 0
-221 -224 0
-222 -223 0
-222 -224 0
-223 -224 0
-225 -226 0
-225 -227 0
-225 -228 0
-225 -229 0
-225 -230 0
-225 -231 0
-226 -227 0
-226 -228 0
-226 -229 0
-226 -230 0
-226 -231 0
-227 -228 0
-227 -229 0
-227 -230 0
-227 -231 0
-228 -229 0
-228 -230 0
-228 -231 0
-229 -230 0
-229 -231 0
-230 -231 0
-232 -233 0
-232 -234 0
-232 -235 0
-232 -236 0
-232 -237 0
-232 -238 0
-233 -234 0
-233 -235 0
-233 -236 0
-233 -237 0
-233 -238 0
-234 -235 0
-234 -236 0
-234 -237 0
-234 -238 0
-235 -236 0
-235 -237 0
-235 -238 0
-236 -237 0
-236 -238 0
-237 -238 0
-239 -240 0
-239 -241 0
-239 -242 0
-239 -243 0
-239 -244 0
-239 -245 0
-240 -241 0
-240 -242 0
-240 -243 0
-240 -244 0
-240 -245 0
-241 -242 0
-241 -243 0
-241 -244 0
-241 -245 0
-242 -243 0
-242 -244 0
-242 -245 0
-243 -244 0
-243 -245 0
-244 -245 0
-246 -247 0
-246 -248 0
-246 -249 0
-246 -250 0
-246 -251 0
-246 -252 0
-247 -248 0
-247 -249 0
-247 -250 0
-247 -251 0
-247 -252 0
-248 -249 0
-248 -250 0
-248 -251 0
-248 -252 0
-249 -250 0
-249 -251 0
-249 -252 0
-250 -251 0
-250 -252 0
-251 -252 0
-253 -254 0
-253 -255 0
-253 -256 0
-253 -257 0
-253 -258 0
-253 -259 0
-254 -255 0
-254 -256 0
-254 -257 0
-254 -258 0
-254 -259 0
-255 -256 0
-255 -257 0
-255 -258 0
-255 -259 0
-256 -257 0
-256 -258 0
-256 -259 0
-257 -258 0
-257 -259 0
-258 -259 0
-260 -261 0
-260 -262 0
-260 -263 0
-260 -264 0
-260 -265 0
-260 -266 0
-261 -262 0
-261 -263 0
-261 -264 0
-261 -265 0
-261 -266 0
-262 -263 0
-262 -264 0
-262 -265 0
-262 -266 0
-263 -264 0
-263 -265 0
-263 -266 0
-264 -265 0
-264 -266 0
-265 -266 0
-267 -268 0
-267 -269 0
-267 -270 0
-267 -271 0
-267 -272 0
-267 -273 0
-268 -269 0
-268 -270 0
-268 -271 0
-268 -272 0
-268 -273 0
-269 -270 0
-269 -271 0
-269 -272 0
-269 -273 0
-270 -271 0
-270 -272 0
-270 -273 0
-271 -272 0
-271 -273 0
-272 -273 0
-274 -275 0
-274 -276 0
-274 -277 0
-274 -278 0
-274 -279 0
-274 -280 0
-275 -276 0
-275 -277 0
-275 -278 0
-275 -279 0
-275 -280 0
-276 -277 0
-276 -278 0
-276 -279 0
-276 -280 0
-277 -278 0
-277 -279 0
-277 -280 0
-278 -279 0
-278 -280 0
-279 -280 0
-281 -282 0
-281 -283 0
-281 -284 0
-281 -285 0
-281 -286 0
-281 -287 0
-282 -283 0
-282 -284 0
-282 -285 0
-282 -286 0
-282 -287 0
-283 -284 0
-283 -285 0
-283 -286 0
-283 -287 0
-284 -285 0
-284 -286 0
-284 -287 0
-285 -286 0
-285 -287 0
-286 -287 0
-288 -289 0
-288 -290 0
-288 -291 0
-288 -292 0
-288 -293 0
-288 -294 0
-289 -290 0
-289 -291 0
-289 -292 0
-289 -293 0
-289 -294 0
-290 -291 0
-290 -292 0
-290 -293 0
-290 -294 0
-291 -292 0
-291 -293 0
-291 -294 0
-292 -293 0
-292 -294 0
-293 -294 0
-295 -296 0
-295 -297 0
-295 -298 0
-295 -299 0
-295 -300 0
-295 -301 0
-296 -297 0
-296 -298 0
-296 -299 0
-296 -300 0
-296 -301 0
-297 -298 0
-297 -299 0
-297 -300 0
-297 -301 0
-298 -299 0
-298 -300 0
-298 -301 0
-299 -300 0
-299 -301 0
-300 -301 0
-302 -303 0
-302 -304 0
-302 -305 0
-302 -306 0
-302 -307 0
-302 -308 0
-303 -304 0
-303 -305 0
-303 -306 0
-303 -307 0
-303 -308 0
-304 -305 0
-304 -306 0
-304 -307 0
-304 -308 0
-305 -306 0
-305 -307 0
-305 -308 0
-306 -307 0
-306 -308 0
-307 -308 0
-309 -310 0
-309 -311 0
-309 -312 0
-309 -313 0
-309 -314 0
-309 -315 0
-310 -311 0
-310 -312 0
-310 -313 0
-310 -314 0
-310 -315 0
-311 -312 0
-311 -313 0
-311 -314 0
-311 -315 0
-312 -313 0
-312 -314 0
-312 -315 0
-313 -314 0
-313 -315 0
-314 -315 0
-3 -158 0
-6 -160 0
-5 -155 0
-2 -160 0
-7 -159 0
-7 -156 0
-4 -157 0
-3 -157 0
-6 -158 0
-7 -160 0
-7 -157 0
-7 -155 0
-3 -159 0
-5 -156 0
-14 -38 0
-10 -41 0
-11 -39 0
-14 -39 0
-10 -36 0
-13 -36 0
-11 -41 0
-13 -40 0
-13 -38 0
-12 -38 0
-10 -37 0
-8 -39 0
-8 -40 0
-11 -38 0
-10 -54 0
-14 -53 0
-10 -56 0
-13 -53 0
-11 -51 0
-10 -51 0
-12 -51 0
-11 -52 0
-11 -53 0
-14 -55 0
-8 -56 0
-11 -50 0
-9 -54 0
-14 -51 0
-9 -98 0
-14 -96 0
-14 -95 0
-8 -92 0
-12 -94 0
-9 -97 0
-10 -95 0
-12 -97 0
-8 -96 0
-14 -92 0
-10 -94 0
-13 -96 0
-14 -97 0
-8 -95 0
-13 -179 0
-11 -179 0
-14 -179 0
-14 -176 0
-8 -177 0
-13 -178 0
-9 -180 0
-11 -178 0
-11 -180 0
-10 -176 0
-12 -178 0
-10 -177 0
-11 -182 0
-10 -180 0
-20 -24 0
-17 -26 0
-18 -25 0
-21 -23 0
-21 -26 0
-19 -28 0
-20 -23 0
-20 -27 0
-15 -24 0
-21 -25 0
-16 -24 0
-18 -24 0
-15 -26 0
-16 -27 0
-15 -38 0
-15 -37 0
-20 -37 0
-16 -39 0
-16 -37 0
-19 -38 0
-17 -39 0
-17 -38 0
-21 -39 0
-18 -39 0
-20 -42 0
-18 -41 0
-21 -42 0
-18 -40 0
-18 -126 0
-21 -120 0
-19 -124 0
-18 -120 0
-18 -125 0
-20 -120 0
-15 -122 0
-17 -126 0
-20 -123 0
-16 -123 0
-18 -122 0
-21 -122 0
-19 -125 0
-21 -125 0
-21 -138 0
-18 -139 0
-19 -137 0
-17 -136 0
-20 -136 0
-21 -139 0
-15 -137 0
-20 -140 0
-15 -134 0
-15 -139 0
-20 -137 0
-21 -137 0
-16 -135 0
-17 -135 0
-20 -148 0
-16 -149 0
-18 -148 0
-20 -150 0
-17 -154 0
-16 -151 0
-15 -150 0
-20 -152 0
-18 -154 0
-15 -151 0
-16 -148 0
-21 -154 0
-21 -150 0
-18 -151 0
-19 -185 0
-18 -183 0
-21 -187 0
-20 -185 0
-21 -188 0
-20 -183 0
-17 -188 0
-18 -186 0
-15 -189 0
-21 -186 0
-18 -188 0
-21 -183 0
-20 -188 0
-16 -188 0
-20 -229 0
-15 -230 0
-17 -231 0
-17 -230 0
-19 -229 0
-18 -226 0
-17 -229 0
-19 -230 0
-21 -226 0
-16 -229 0
-20 -225 0
-15 -229 0
-17 -228 0
-20 -226 0
-24 -196 0
-26 -194 0
-25 -196 0
-28 -191 0
-23 -190 0
-28 -192 0
-27 -194 0
-28 -194 0
-26 -193 0
-27 -192 0
-22 -193 0
-27 -190 0
-28 -193 0
-26 -196 0
-23 -244 0
-26 -245 0
-27 -242 0
-24 -241 0
-25 -244 0
-25 -239 0
-22 -243 0
-26 -244 0
-27 -240 0
-23 -243 0
-27 -241 0
-28 -239 0
-25 -245 0
-27 -239 0
-28 -273 0
-27 -267 0
-28 -272 0
-26 -273 0
-27 -271 0
-22 -273 0
-28 -268 0
-25 -271 0
-23 -272 0
-24 -273 0
-25 -270 0
-25 -269 0
-25 -273 0
-26 -270 0
-32 -179 0
-34 -176 0
-34 -180 0
-30 -176 0
-31 -176 0
-31 -177 0
-33 -179 0
-32 -177 0
-33 -181 0
-29 -182 0
-34 -178 0
-30 -178 0
-32 -178 0
-34 -181 0
-29 -209 0
-32 -208 0
-31 -204 0
-35 -207 0
-35 -209 0
-29 -204 0
-31 -205 0
-30 -209 0
-34 -207 0
-33 -208 0
-33 -209 0
-32 -206 0
-34 -209 0
-34 -208 0
-32 -283 0
-32 -286 0
-34 -286 0
-29 -286 0
-35 -286 0
-33 -285 0
-34 -283 0
-32 -282 0
-31 -285 0
-34 -287 0
-31 -286 0
-30 -282 0
-31 -282 0
-33 -281 0
-38 -110 0
-36 -107 0
-37 -107 0
-40 -110 0
-41 -109 0
-39 -112 0
-37 -108 0
-39 -110 0
-42 -110 0
-37 -110 0
-42 -106 0
-37 -111 0
-36 -106 0
-40 -108 0
-40 -168 0
-42 -165 0
-37 -166 0
-41 -164 0
-37 -162 0
-40 -163 0
-39 -163 0
-36 -165 0
-37 -168 0
-38 -165 0
-38 -168 0
-39 -167 0
-42 -167 0
-39 -164 0
-39 -254 0
-40 -253 0
-42 -258 0
-40 -255 0
-41 -254 0
-36 -254 0
-38 -253 0
-40 -256 0
-36 -253 0
-39 -257 0
-42 -253 0
-39 -253 0
-41 -255 0
-41 -256 0
-46 -306 0
-45 -307 0
-46 -305 0
-43 -305 0
-44 -302 0
-49 -307 0
-47 -304 0
-48 -305 0
-43 -307 0
-45 -306 0
-44 -306 0
-48 -308 0
-46 -307 0
-48 -306 0
-53 -94 0
-51 -98 0
-54 -98 0
-55 -96 0
-56 -97 0
-50 -96 0
-53 -92 0
-52 -92 0
-51 -97 0
-50 -93 0
-50 -98 0
-54 -96 0
-55 -92 0
-53 -98 0
-52 -107 0
-52 -108 0
-56 -112 0
-56 -110 0
-51 -110 0
-50 -112 0
-56 -108 0
-53 -112 0
-55 -111 0
-52 -111 0
-54 -107 0
-51 -106 0
-53 -110 0
-52 -112 0
-53 -233 0
-53 -236 0
-54 -236 0
-51 -232 0
-55 -232 0
-50 -234 0
-51 -237 0
-53 -235 0
-55 -234 0
-54 -233 0
-52 -237 0
-54 -234 0
-51 -233 0
-52 -238 0
-62 -171 0
-62 -173 0
-57 -174 0
-60 -172 0
-62 -169 0
-61 -172 0
-58 -171 0
-58 -173 0
-60 -169 0
-60 -170 0
-58 -175 0
-60 -174 0
-57 -172 0
-58 -170 0
-65 -277 0
-67 -279 0
-68 -279 0
-64 -278 0
-68 -276 0
-66 -276 0
-64 -276 0
-70 -275 0
-64 -275 0
-69 -277 0
-69 -275 0
-67 -277 0
-65 -274 0
-69 -278 0
-70 -309 0
-67 -311 0
-67 -314 0
-67 -309 0
-65 -311 0
-69 -315 0
-68 -310 0
-66 -313 0
-68 -309 0
-69 -312 0
-64 -310 0
-68 -315 0
-66 -312 0
-69 -310 0
-71 -265 0
-73 -264 0
-72 -265 0
-76 -265 0
-76 -260 0
-75 -266 0
-76 -264 0
-72 -266 0
-76 -263 0
-73 -260 0
-74 -262 0
-77 -266 0
-77 -261 0
-71 -260 0
-78 -204 0
-82 -206 0
-78 -209 0
-79 -210 0
-79 -209 0
-78 -210 0
-84 -209 0
-79 -206 0
-82 -210 0
-83 -208 0
-81 -207 0
-81 -205 0
-83 -205 0
-79 -207 0
-80 -255 0
-84 -259 0
-82 -257 0
-78 -253 0
-80 -258 0
-81 -255 0
-79 -255 0
-83 -256 0
-79 -259 0
-79 -254 0
-83 -257 0
-80 -259 0
-82 -258 0
-81 -258 0
-81 -293 0
-78 -288 0
-84 -289 0
-80 -293 0
-84 -290 0
-82 -292 0
-80 -288 0
-82 -290 0
-82 -294 0
-83 -293 0
-83 -292 0
-83 -290 0
-78 -293 0
-83 -294 0
-84 -303 0
-84 -302 0
-80 -303 0
-81 -308 0
-82 -308 0
-80 -302 0
-82 -307 0
-78 -306 0
-81 -303 0
-78 -303 0
-79 -306 0
-82 -302 0
-79 -302 0
-84 -307 0
-86 -103 0
-89 -102 0
-88 -101 0
-90 -103 0
-91 -102 0
-90 -105 0
-91 -100 0
-88 -102 0
-86 -100 0
-90 -104 0
-85 -103 0
-89 -99 0
-90 -102 0
-90 -100 0
-85 -153 0
-87 -150 0
-86 -152 0
-85 -149 0
-91 -150 0
-89 -148 0
-87 -154 0
-90 -152 0
-91 -152 0
-88 -153 0
-86 -148 0
-91 -151 0
-90 -153 0
-86 -153 0
-85 -290 0
-88 -290 0
-88 -288 0
-85 -293 0
-89 -293 0
-88 -293 0
-85 -292 0
-86 -288 0
-89 -294 0
-87 -291 0
-87 -290 0
-90 -292 0
-89 -292 0
-91 -291 0
-95 -99 0
-97 -102 0
-98 -104 0
-96 -103 0
-97 -99 0
-93 -103 0
-95 -103 0
-98 -99 0
-92 -99 0
-97 -100 0
-92 -105 0
-98 -100 0
-97 -103 0
-92 -102 0
-98 -246 0
-92 -251 0
-97 -246 0
-93 -246 0
-93 -247 0
-96 -250 0
-95 -252 0
-93 -251 0
-94 -252 0
-96 -246 0
-96 -251 0
-94 -247 0
-98 -251 0
-92 -246 0
-98 -268 0
-98 -270 0
-96 -267 0
-95 -271 0
-98 -272 0
-96 -272 0
-92 -269 0
-98 -271 0
-96 -268 0
-95 -270 0
-92 -270 0
-94 -271 0
-93 -268 0
-94 -267 0
-94 -300 0
-97 -300 0
-93 -300 0
-92 -296 0
-95 -297 0
-94 -301 0
-94 -295 0
-97 -296 0
-96 -296 0
-97 -301 0
-98 -300 0
-95 -300 0
-98 -295 0
-94 -298 0
-97 -313 0
-93 -313 0
-95 -310 0
-96 -315 0
-97 -314 0
-97 -315 0
-95 -313 0
-95 -314 0
-96 -311 0
-94 -313 0
-98 -314 0
-95 -311 0
-98 -312 0
-94 -315 0
-101 -233 0
-104 -235 0
-103 -235 0
-99 -232 0
-103 -237 0
-100 -234 0
-102 -238 0
-102 -233 0
-105 -237 0
-102 -234 0
-100 -232 0
-99 -237 0
-102 -236 0
-103 -236 0
-108 -119 0
-110 -116 0
-110 -118 0
-108 -116 0
-109 -114 0
-108 -113 0
-106 -117 0
-112 -113 0
-111 -119 0
-111 -115 0
-106 -114 0
-107 -119 0
-107 -117 0
-106 -118 0
-109 -160 0
-108 -155 0
-112 -158 0
-111 -159 0
-112 -155 0
-106 -161 0
-107 -158 0
-112 -159 0
-108 -158 0
-106 -156 0
-108 -157 0
-112 -156 0
-109 -161 0
-108 -161 0
-107 -171 0
-106 -171 0
-112 -175 0
-107 -175 0
-106 -170 0
-106 -173 0
-106 -175 0
-109 -171 0
-108 -169 0
-107 -172 0
-107 -169 0
-111 -169 0
-111 -172 0
-106 -169 0
-112 -243 0
-106 -245 0
-112 -244 0
-111 -243 0
-106 -243 0
-112 -239 0
-107 -239 0
-112 -241 0
-112 -240 0
-108 -242 0
-111 -241 0
-106 -239 0
-108 -240 0
-106 -241 0
-111 -266 0
-109 -266 0
-108 -262 0
-109 -260 0
-106 -265 0
-111 -265 0
-111 -261 0
-109 -264 0
-112 -265 0
-106 -260 0
-107 -263 0
-107 -266 0
-106 -266 0
-106 -262 0
-109 -312 0
-112 -309 0
-112 -312 0
-106 -315 0
-108 -314 0
-110 -314 0
-112 -313 0
-110 -312 0
-108 -313 0
-108 -309 0
-109 -309 0
-110 -313 0
-110 -311 0
-107 -310 0
-116 -162 0
-114 -162 0
-117 -168 0
-118 -166 0
-113 -163 0
-116 -168 0
-118 -162 0
-119 -164 0
-119 -168 0
-118 -165 0
-119 -165 0
-119 -166 0
-117 -162 0
-115 -168 0
-116 -213 0
-116 -211 0
-113 -211 0
-117 -213 0
-117 -217 0
-118 -211 0
-115 -213 0
-119 -217 0
-113 -213 0
-118 -214 0
-119 -213 0
-114 -212 0
-116 -216 0
-114 -213 0
-116 -218 0
-114 -220 0
-113 -220 0
-116 -219 0
-113 -221 0
-118 -223 0
-114 -218 0
-113 -222 0
-117 -222 0
-114 -219 0
-117 -219 0
-117 -221 0
-118 -219 0
-117 -223 0
-118 -290 0
-117 -291 0
-113 -289 0
-115 -288 0
-119 -288 0
-116 -288 0
-119 -291 0
-113 -294 0
-115 -289 0
-113 -291 0
-114 -290 0
-118 -292 0
-118 -289 0
-117 -292 0
-118 -308 0
-113 -305 0
-118 -303 0
-114 -308 0
-117 -306 0
-115 -307 0
-113 -308 0
-117 -304 0
-113 -306 0
-119 -302 0
-118 -305 0
-113 -303 0
-116 -302 0
-117 -305 0
-122 -171 0
-123 -170 0
-123 -172 0
-124 -172 0
-124 -174 0
-120 -172 0
-120 -170 0
-124 -169 0
-125 -174 0
-121 -174 0
-120 -175 0
-124 -171 0
-125 -172 0
-126 -172 0
-123 -232 0
-121 -232 0
-125 -236 0
-121 -237 0
-120 -234 0
-125 -235 0
-122 -233 0
-121 -233 0
-126 -234 0
-124 -235 0
-122 -238 0
-122 -236 0
-122 -235 0
-120 -235 0
-127 -137 0
-130 -136 0
-127 -134 0
-129 -138 0
-128 -136 0
-133 -134 0
-130 -138 0
-132 -134 0
-131 -137 0
-127 -136 0
-133 -138 0
-131 -139 0
-129 -134 0
-131 -135 0
-129 -141 0
-127 -144 0
-130 -141 0
-127 -141 0
-128 -141 0
-131 -147 0
-131 -141 0
-133 -144 0
-132 -143 0
-128 -143 0
-133 -143 0
-129 -144 0
-127 -143 0
-128 -144 0
-128 -243 0
-133 -243 0
-130 -241 0
-128 -239 0
-132 -242 0
-128 -245 0
-129 -240 0
-131 -239 0
-133 -241 0
-132 -243 0
-129 -242 0
-132 -239 0
-131 -245 0
-132 -245 0
-129 -280 0
-127 -277 0
-133 -279 0
-129 -277 0
-128 -277 0
-128 -276 0
-133 -277 0
-130 -274 0
-131 -279 0
-131 -274 0
-128 -279 0
-133 -274 0
-132 -279 0
-133 -278 0
-130 -282 0
-130 -287 0
-129 -286 0
-130 -283 0
-127 -281 0
-131 -284 0
-132 -283 0
-130 -285 0
-127 -282 0
-128 -287 0
-131 -281 0
-129 -281 0
-132 -287 0
-128 -282 0
-132 -299 0
-133 -295 0
-129 -295 0
-133 -296 0
-127 -298 0
-127 -300 0
-132 -296 0
-129 -299 0
-130 -300 0
-131 -295 0
-130 -296 0
-127 -297 0
-131 -297 0
-127 -299 0
-140 -169 0
-136 -175 0
-135 -173 0
-134 -175 0
-134 -171 0
-135 -174 0
-135 -171 0
-139 -172 0
-139 -173 0
-139 -169 0
-138 -171 0
-136 -174 0
-136 -173 0
-135 -172 0
-138 -254 0
-134 -257 0
-136 -259 0
-137 -258 0
-140 -256 0
-137 -253 0
-134 -256 0
-139 -256 0
-134 -254 0
-138 -259 0
-137 -254 0
-138 -253 0
-134 -259 0
-134 -255 0
-142 -204 0
-145 -208 0
-142 -206 0
-145 -205 0
-144 -207 0
-141 -210 0
-145 -207 0
-145 -206 0
-145 -209 0
-147 -210 0
-141 -204 0
-143 -209 0
-144 -210 0
-141 -207 0
-145 -236 0
-142 -232 0
-144 -234 0
-146 -232 0
-147 -232 0
-142 -234 0
-143 -236 0
-141 -232 0
-141 -237 0
-141 -234 0
-144 -232 0
-145 -234 0
-144 -233 0
-144 -238 0
-142 -254 0
-143 -257 0
-141 -257 0
-144 -259 0
-146 -255 0
-142 -259 0
-143 -254 0
-147 -255 0
-147 -256 0
-143 -259 0
-142 -256 0
-141 -259 0
-143 -253 0
-143 -255 0
-149 -159 0
-149 -161 0
-150 -161 0
-152 -160 0
-150 -158 0
-150 -157 0
-151 -156 0
-152 -155 0
-154 -156 0
-154 -160 0
-149 -158 0
-149 -155 0
-150 -159 0
-148 -157 0
-150 -168 0
-153 -164 0
-154 -162 0
-148 -164 0
-152 -163 0
-151 -164 0
-154 -166 0
-149 -168 0
-153 -162 0
-154 -163 0
-152 -162 0
-152 -165 0
-151 -162 0
-152 -168 0
-153 -181 0
-154 -180 0
-154 -176 0
-154 -182 0
-151 -178 0
-152 -178 0
-151 -177 0
-153 -179 0
-154 -177 0
-153 -177 0
-149 -176 0
-152 -177 0
-151 -180 0
-149 -180 0
-150 -193 0
-154 -192 0
-150 -190 0
-151 -194 0
-151 -196 0
-153 -192 0
-151 -191 0
-149 -192 0
-148 -196 0
-151 -193 0
-153 -194 0
-154 -194 0
-153 -191 0
-150 -194 0
-149 -209 0
-151 -209 0
-152 -210 0
-150 -210 0
-154 -207 0
-150 -205 0
-154 -206 0
-148 -209 0
-154 -209 0
-150 -206 0
-152 -204 0
-151 -204 0
-151 -210 0
-149 -210 0
-151 -278 0
-153 -277 0
-152 -274 0
-149 -275 0
-151 -279 0
-152 -275 0
-148 -274 0
-149 -276 0
-148 -279 0
-151 -276 0
-150 -277 0
-148 -277 0
-151 -277 0
-153 -280 0
-150 -283 0
-151 -284 0
-148 -283 0
-151 -282 0
-152 -284 0
-148 -287 0
-148 -282 0
-154 -286 0
-152 -283 0
-150 -287 0
-154 -284 0
-150 -282 0
-154 -281 0
-154 -282 0
-150 -312 0
-154 -315 0
-148 -309 0
-149 -309 0
-153 -314 0
-148 -314 0
-154 -314 0
-148 -312 0
-151 -309 0
-152 -311 0
-149 -314 0
-150 -314 0
-153 -315 0
-153 -311 0
-156 -183 0
-156 -184 0
-161 -188 0
-159 -187 0
-158 -186 0
-159 -186 0
-156 -186 0
-157 -183 0
-155 -186 0
-158 -183 0
-155 -189 0
-161 -189 0
-157 -184 0
-159 -188 0
-156 -201 0
-161 -200 0
-158 -198 0
-157 -197 0
-160 -199 0
-160 -202 0
-159 -203 0
-161 -199 0
-158 -202 0
-156 -203 0
-158 -201 0
-159 -197 0
-155 -200 0
-156 -202 0
-155 -244 0
-160 -242 0
-155 -240 0
-160 -240 0
-160 -239 0
-161 -244 0
-158 -239 0
-156 -239 0
-155 -242 0
-156 -240 0
-157 -243 0
-158 -240 0
-156 -242 0
-155 -243 0
-155 -300 0
-159 -297 0
-158 -300 0
-156 -297 0
-158 -301 0
-161 -296 0
-157 -298 0
-156 -299 0
-157 -297 0
-155 -297 0
-160 -300 0
-155 -296 0
-161 -297 0
-161 -300 0
-162 -184 0
-163 -186 0
-163 -188 0
-166 -183 0
-167 -184 0
-164 -183 0
-162 -183 0
-165 -188 0
-163 -183 0
-167 -187 0
-166 -185 0
-165 -184 0
-167 -183 0
-162 -185 0
-164 -225 0
-167 -228 0
-163 -225 0
-162 -229 0
-166 -228 0
-167 -230 0
-166 -229 0
-166 -225 0
-162 -230 0
-162 -226 0
-162 -227 0
-167 -226 0
-165 -228 0
-166 -226 0
-170 -202 0
-174 -202 0
-174 -197 0
-170 -203 0
-175 -198 0
-172 -201 0
-169 -200 0
-169 -197 0
-171 -200 0
-173 -199 0
-170 -201 0
-172 -203 0
-170 -198 0
-173 -197 0
-169 -263 0
-175 -264 0
-170 -265 0
-175 -263 0
-174 -260 0
-173 -261 0
-170 -263 0
-169 -261 0
-174 -264 0
-170 -260 0
-171 -264 0
-171 -260 0
-174 -262 0
-175 -266 0
-177 -256 0
-176 -257 0
-180 -259 0
-181 -258 0
-179 -257 0
-180 -253 0
-182 -253 0
-182 -255 0
-179 -254 0
-178 -257 0
-181 -253 0
-181 -257 0
-178 -254 0
-177 -255 0
-188 -209 0
-188 -204 0
-189 -204 0
-185 -206 0
-183 -208 0
-184 -206 0
-183 -206 0
-184 -208 0
-186 -207 0
-189 -209 0
-187 -207 0
-187 -210 0
-186 -210 0
-184 -205 0
-188 -292 0
-188 -291 0
-185 -294 0
-187 -288 0
-183 -289 0
-188 -294 0
-183 -288 0
-184 -292 0
-186 -291 0
-186 -292 0
-183 -290 0
-183 -294 0
-188 -290 0
-187 -293 0
-190 -291 0
-192 -292 0
-194 -289 0
-191 -290 0
-193 -292 0
-194 -292 0
-192 -290 0
-192 -291 0
-193 -288 0
-196 -289 0
-196 -290 0
-195 -292 0
-192 -289 0
-196 -294 0
-193 -309 0
-195 -313 0
-190 -312 0
-191 -311 0
-193 -312 0
-193 -314 0
-190 -310 0
-196 -313 0
-192 -309 0
-192 -313 0
-195 -314 0
-192 -311 0
-191 -309 0
-194 -314 0
-204 -229 0
-207 -228 0
-208 -225 0
-210 -225 0
-210 -227 0
-209 -229 0
-207 -227 0
-208 -231 0
-209 -226 0
-207 -226 0
-208 -227 0
-206 -230 0
-204 -227 0
-205 -225 0
-213 -264 0
-217 -262 0
-213 -262 0
-217 -266 0
-216 -262 0
-214 -263 0
-215 -266 0
-212 -262 0
-214 -262 0
-215 -262 0
-214 -266 0
-212 -263 0
-213 -260 0
-214 -260 0
-213 -297 0
-214 -298 0
-211 -300 0
-211 -299 0
-211 -296 0
-211 -298 0
-214 -299 0
-216 -295 0
-211 -297 0
-217 -299 0
-216 -299 0
-212 -300 0
-213 -301 0
-215 -296 0
-231 -279 0
-228 -278 0
-225 -280 0
-230 -275 0
-225 -276 0
-227 -280 0
-229 -279 0
-229 -278 0
-225 -275 0
-226 -280 0
-228 -274 0
-229 -275 0
-230 -277 0
-227 -276 0
-234 -296 0
-233 -298 0
-238 -295 0
-234 -295 0
-236 -297 0
-233 -296 0
-238 -298 0
-238 -296 0
-233 -300 0
-237 -299 0
-236 -300 0
-232 -298 0
-233 -299 0
-236 -296 0
-242 -251 0
-240 -247 0
-241 -247 0
-242 -250 0
-244 -246 0
-242 -247 0
-245 -250 0
-240 -248 0
-242 -248 0
-243 -250 0
-239 -250 0
-243 -247 0
-243 -251 0
-242 -249 0
-240 -267 0
-245 -272 0
-245 -270 0
-245 -267 0
-244 -272 0
-244 -273 0
-244 -269 0
-240 -269 0
-242 -267 0
-239 -273 0
-240 -270 0
-243 -269 0
-244 -268 0
-243 -268 0
-249 -315 0
-252 -313 0
-249 -314 0
-250 -314 0
-251 -313 0
-248 -315 0
-249 -312 0
-249 -311 0
-248 -310 0
-248 -311 0
-249 -310 0
-249 -309 0
-250 -310 0
-246 -313 0
-253 -275 0
-259 -275 0
-258 -276 0
-259 -276 0
-256 -275 0
-257 -280 0
-254 -279 0
-254 -274 0
-253 -274 0
-259 -274 0
-256 -279 0
-258 -274 0
-256 -278 0
-253 -277 0
-254 -307 0
-257 -306 0
-259 -305 0
-259 -308 0
-253 -305 0
-255 -304 0
-255 -303 0
-259 -307 0
-258 -304 0
-259 -306 0
-259 -303 0
-256 -307 0
-255 -302 0
-257 -303 0
-269 -279 0
-268 -279 0
-267 -279 0
-270 -280 0
-271 -274 0
-272 -275 0
-267 -280 0
-270 -277 0
-269 -278 0
-269 -275 0
-273 -275 0
-270 -274 0
-273 -274 0
-271 -277 0
-288 -309 0
-288 -310 0
-289 -312 0
-291 -313 0
-292 -310 0
-292 -309 0
-289 -309 0
-292 -314 0
-293 -309 0
-293 -310 0
-289 -314 0
-294 -313 0
-293 -313 0
-290 -309 0
